# Objective value = 2.1673700000000017e+03
I_0_0 1583
I_0_1 2003
I_0_2 1.7210000000000002e+03
I_0_3 2.2060000000000005e+03
I_1_0 87
I_1_1 0
I_1_2 87
I_1_3 0
I_2_0 14
I_2_1 0
I_2_2 14
I_2_3 0
I_3_0 172
I_3_1 86
I_3_2 172
I_3_3 86
I_4_0 75
I_4_1 75
I_4_2 0
I_4_3 7.5000000000000171e+01
I_5_0 84
I_5_1 42
I_5_2 84
I_5_3 4.2000000000000007e+01
I_6_0 69
I_6_1 0
I_6_2 69
I_6_3 0
I_7_0 158
I_7_1 79
I_7_2 158
I_7_3 79
I_8_0 86
I_8_1 4.3000000000000021e+01
I_8_2 8.5999999999999986e+01
I_8_3 4.2999999999999986e+01
I_9_0 77
I_9_1 77
I_9_2 77
I_9_3 0
I_10_0 126
I_10_1 126
I_10_2 6.2999999999999716e+01
I_10_3 -2.8772282169373690e-13
q_1_0 0
q_1_1 174
q_1_2 0
q_2_0 0
q_2_1 28
q_2_2 0
q_3_0 0
q_3_1 172
q_3_2 0
q_4_0 75
q_4_1 0
q_4_2 1.5000000000000017e+02
q_5_0 0
q_5_1 84
q_5_2 0
q_6_0 0
q_6_1 138
q_6_2 0
q_7_0 0
q_7_1 158
q_7_2 -1.4210854715202004e-14
q_8_0 1.9095836023552692e-14
q_8_1 86
q_8_2 0
q_9_0 77
q_9_1 77
q_9_2 0
q_10_0 63
q_10_1 -2.7497241081595415e-13
q_10_2 0
y_0_0 1
y_0_1 1
y_0_2 1
y_1_0 0
y_1_1 1
y_1_2 0
y_2_0 0
y_2_1 1
y_2_2 0
y_3_0 0
y_3_1 1
y_3_2 0
y_4_0 1
y_4_1 0
y_4_2 1.0000000000000022e+00
y_5_0 0
y_5_1 1
y_5_2 0
y_6_0 0
y_6_1 1
y_6_2 0
y_7_0 0
y_7_1 1
y_7_2 0
y_8_0 4.4408920985006262e-16
y_8_1 1
y_8_2 0
y_9_0 1
y_9_1 1
y_9_2 0
y_10_0 1
y_10_1 -2.2835144578868009e-15
y_10_2 0
x_0_1_0 0
x_0_1_1 0
x_0_1_2 0
x_0_2_0 0
x_0_2_1 0
x_0_2_2 0
x_0_3_0 0
x_0_3_1 0
x_0_3_2 0
x_0_4_0 9.9999999999999545e-01
x_0_4_1 0
x_0_4_2 2.0000000000000009e+00
x_0_5_0 0
x_0_5_1 1
x_0_5_2 0
x_0_6_0 0
x_0_6_1 0
x_0_6_2 0
x_0_7_0 0
x_0_7_1 0
x_0_7_2 0
x_0_8_0 0
x_0_8_1 0
x_0_8_2 0
x_0_9_0 1.0000000000000053e+00
x_0_9_1 1
x_0_9_2 0
x_0_10_0 -6.9388939039072284e-16
x_0_10_1 0
x_0_10_2 -8.8817841970012523e-16
x_1_2_0 0
x_1_2_1 1
x_1_2_2 0
x_1_3_0 0
x_1_3_1 1
x_1_3_2 0
x_1_4_0 0
x_1_4_1 0
x_1_4_2 0
x_1_5_0 0
x_1_5_1 0
x_1_5_2 0
x_1_6_0 0
x_1_6_1 0
x_1_6_2 0
x_1_7_0 0
x_1_7_1 0
x_1_7_2 0
x_1_8_0 0
x_1_8_1 0
x_1_8_2 0
x_1_9_0 0
x_1_9_1 0
x_1_9_2 0
x_1_10_0 0
x_1_10_1 0
x_1_10_2 0
x_2_3_0 0
x_2_3_1 0
x_2_3_2 0
x_2_4_0 0
x_2_4_1 0
x_2_4_2 0
x_2_5_0 0
x_2_5_1 0
x_2_5_2 0
x_2_6_0 0
x_2_6_1 0
x_2_6_2 0
x_2_7_0 -1.1934897514720433e-15
x_2_7_1 0
x_2_7_2 0
x_2_8_0 0
x_2_8_1 0
x_2_8_2 0
x_2_9_0 1.1102230246251565e-15
x_2_9_1 1
x_2_9_2 0
x_2_10_0 0
x_2_10_1 0
x_2_10_2 0
x_3_4_0 0
x_3_4_1 0
x_3_4_2 0
x_3_5_0 0
x_3_5_1 0
x_3_5_2 0
x_3_6_0 0
x_3_6_1 0
x_3_6_2 0
x_3_7_0 0
x_3_7_1 1
x_3_7_2 0
x_3_8_0 2.2204460492503131e-16
x_3_8_1 0
x_3_8_2 0
x_3_9_0 -1.1102230246251565e-15
x_3_9_1 0
x_3_9_2 0
x_3_10_0 0
x_3_10_1 0
x_3_10_2 0
x_4_5_0 0
x_4_5_1 0
x_4_5_2 0
x_4_6_0 0
x_4_6_1 0
x_4_6_2 0
x_4_7_0 0
x_4_7_1 0
x_4_7_2 0
x_4_8_0 0
x_4_8_1 0
x_4_8_2 0
x_4_9_0 0
x_4_9_1 0
x_4_9_2 0
x_4_10_0 1.0000000000000047e+00
x_4_10_1 0
x_4_10_2 0
x_5_6_0 0
x_5_6_1 0
x_5_6_2 0
x_5_7_0 0
x_5_7_1 0
x_5_7_2 0
x_5_8_0 0
x_5_8_1 1
x_5_8_2 0
x_5_9_0 0
x_5_9_1 0
x_5_9_2 0
x_5_10_0 0
x_5_10_1 0
x_5_10_2 0
x_6_7_0 0
x_6_7_1 1
x_6_7_2 0
x_6_8_0 0
x_6_8_1 1
x_6_8_2 0
x_6_9_0 0
x_6_9_1 0
x_6_9_2 0
x_6_10_0 0
x_6_10_1 0
x_6_10_2 0
x_7_8_0 1.9428902930940239e-16
x_7_8_1 0
x_7_8_2 0
x_7_9_0 0
x_7_9_1 0
x_7_9_2 0
x_7_10_0 0
x_7_10_1 0
x_7_10_2 0
x_8_9_0 0
x_8_9_1 0
x_8_9_2 0
x_8_10_0 7.7715611723760958e-16
x_8_10_1 0
x_8_10_2 0
x_9_10_0 1.0000000000000013e+00
x_9_10_1 0
x_9_10_2 0
